WARNING: for repeatability, setting FPU to use double precision
============================[ Problem Statistics ]=============================
|                                                                             |
|  Number of variables:        195146                                         |
|  Number of clauses:          440554                                         |
|  Parse time:                   0.14 s                                       |
|                                                                             |
============================[ Search Statistics ]==============================
| Conflicts |          ORIGINAL         |          LEARNT          | Progress |
|           |    Vars  Clauses Literals |    Limit  Clauses Lit/Cl |          |
===============================================================================
|       100 |  105316   419968   946452 |   153988      100     30 | 46.032 % |
|       250 |  105316   419968   946452 |   169387      250     50 | 46.032 % |
|       475 |  105316   419968   946452 |   186325      475     61 | 46.032 % |
|       812 |  105316   419968   946452 |   204958      812     63 | 46.032 % |
|      1318 |  105316   419968   946452 |   225454     1318     64 | 46.032 % |
|      2077 |  105316   419968   946452 |   247999     2077     57 | 46.032 % |
|      3216 |  105316   419968   946452 |   272799     3216     71 | 46.032 % |
|      4924 |  105316   419968   946452 |   300079     4924     80 | 46.032 % |
|      7486 |  105316   419968   946452 |   330087     7486    100 | 46.032 % |
|     11330 |  105316   419968   946452 |   363096    11330    107 | 46.032 % |
|     17096 |  105316   419968   946452 |   399405    17096    102 | 46.032 % |
|     25745 |  105316   419968   946452 |   439346    25745     99 | 46.032 % |
|     38719 |  105316   419968   946452 |   483281    38719    108 | 46.032 % |
|     58180 |  105316   419968   946452 |   531609    58180    104 | 46.032 % |
|     87372 |  105316   419968   946452 |   584770    87372    105 | 46.032 % |
|    131161 |  105316   419968   946452 |   643247   131161    109 | 46.032 % |
|    196845 |  105316   419968   946452 |   707571   196845    101 | 46.032 % |
|    295371 |  105316   419968   946452 |   778329   295371    100 | 46.032 % |
|    443160 |  105316   419968   946452 |   856162   443160     97 | 46.032 % |
|    664843 |  105316   419968   946452 |   941778   664843     94 | 46.032 % |
===============================================================================
restarts              : 2045
conflicts             : 952721         (605 /sec)
decisions             : 1821023        (0.00 % random) (1157 /sec)
propagations          : 1950286854     (1238757 /sec)
conflict literals     : 80536467       (39.13 % deleted)
Memory used           : 683.00 MB
CPU time              : 1574.39 s

UNSATISFIABLE
